30
1 0 1
2 0 1
2 1 1
3 0 1
3 1 1
3 2 2
4 0 1
4 1 1
4 2 1
4 3 2
5 0 2
5 1 1
5 2 1
5 3 1
5 4 2
6 0 1
6 1 2
6 2 1
6 3 2
6 4 2
6 5 1
7 0 2
7 1 2
7 2 2
7 3 2
7 4 2
7 5 2
7 6 2
8 0 2
8 1 2
8 2 2
8 3 2
8 4 2
8 5 2
8 6 2
8 7 1
9 0 2
9 1 1
9 2 2
9 3 1
9 4 1
9 5 2
9 6 2
9 7 2
9 8 2
10 0 1
10 1 1
10 2 1
10 3 1
10 4 2
10 5 1
10 6 2
10 7 2
10 8 1
10 9 2
11 0 1
11 1 1
11 2 2
11 3 2
11 4 2
11 5 1
11 6 1
11 7 2
11 8 1
11 9 2
11 10 2
12 0 2
12 1 1
12 2 2
12 3 2
12 4 1
12 5 2
12 6 2
12 7 1
12 8 2
12 9 2
12 10 1
12 11 2
13 0 1
13 1 2
13 2 2
13 3 1
13 4 1
13 5 1
13 6 1
13 7 2
13 8 1
13 9 1
13 10 1
13 11 1
13 12 2
14 0 1
14 1 2
14 2 1
14 3 1
14 4 1
14 5 2
14 6 2
14 7 2
14 8 1
14 9 1
14 10 2
14 11 2
14 12 2
14 13 1
15 0 1
15 1 1
15 2 2
15 3 2
15 4 1
15 5 1
15 6 1
15 7 2
15 8 2
15 9 1
15 10 1
15 11 2
15 12 1
15 13 2
15 14 1
16 0 1
16 1 2
16 2 1
16 3 1
16 4 1
16 5 1
16 6 1
16 7 2
16 8 2
16 9 2
16 10 1
16 11 2
16 12 2
16 13 1
16 14 2
16 15 1
17 0 2
17 1 2
17 2 2
17 3 2
17 4 2
17 5 2
17 6 2
17 7 2
17 8 2
17 9 1
17 10 2
17 11 2
17 12 2
17 13 2
17 14 1
17 15 1
17 16 2
18 0 1
18 1 1
18 2 2
18 3 2
18 4 1
18 5 2
18 6 1
18 7 2
18 8 1
18 9 2
18 10 1
18 11 1
18 12 1
18 13 1
18 14 2
18 15 2
18 16 2
18 17 2
19 0 1
19 1 1
19 2 1
19 3 1
19 4 2
19 5 1
19 6 1
19 7 2
19 8 2
19 9 1
19 10 1
19 11 2
19 12 1
19 13 1
19 14 2
19 15 2
19 16 2
19 17 2
19 18 1
20 0 1
20 1 1
20 2 2
20 3 2
20 4 1
20 5 2
20 6 2
20 7 1
20 8 2
20 9 2
20 10 2
20 11 1
20 12 1
20 13 2
20 14 2
20 15 1
20 16 1
20 17 1
20 18 1
20 19 2
21 0 1
21 1 1
21 2 1
21 3 1
21 4 1
21 5 2
21 6 2
21 7 1
21 8 2
21 9 1
21 10 1
21 11 2
21 12 2
21 13 1
21 14 1
21 15 2
21 16 2
21 17 1
21 18 1
21 19 2
21 20 2
22 0 1
22 1 2
22 2 2
22 3 1
22 4 2
22 5 2
22 6 2
22 7 2
22 8 1
22 9 2
22 10 2
22 11 2
22 12 1
22 13 1
22 14 1
22 15 1
22 16 2
22 17 1
22 18 2
22 19 2
22 20 2
22 21 2
23 0 1
23 1 2
23 2 1
23 3 1
23 4 1
23 5 2
23 6 1
23 7 1
23 8 2
23 9 2
23 10 2
23 11 2
23 12 2
23 13 2
23 14 2
23 15 1
23 16 2
23 17 2
23 18 2
23 19 2
23 20 1
23 21 1
23 22 2
24 0 2
24 1 2
24 2 2
24 3 2
24 4 2
24 5 1
24 6 1
24 7 2
24 8 2
24 9 2
24 10 2
24 11 2
24 12 2
24 13 2
24 14 1
24 15 1
24 16 1
24 17 2
24 18 2
24 19 1
24 20 1
24 21 1
24 22 2
24 23 2
25 0 1
25 1 2
25 2 1
25 3 2
25 4 1
25 5 2
25 6 1
25 7 2
25 8 2
25 9 2
25 10 2
25 11 1
25 12 1
25 13 2
25 14 2
25 15 2
25 16 2
25 17 2
25 18 2
25 19 2
25 20 2
25 21 1
25 22 2
25 23 1
25 24 2
26 0 2
26 1 2
26 2 2
26 3 2
26 4 1
26 5 2
26 6 2
26 7 1
26 8 2
26 9 2
26 10 2
26 11 2
26 12 2
26 13 2
26 14 2
26 15 1
26 16 1
26 17 1
26 18 1
26 19 2
26 20 1
26 21 1
26 22 2
26 23 1
26 24 2
26 25 2
27 0 1
27 1 1
27 2 2
27 3 2
27 4 1
27 5 2
27 6 2
27 7 2
27 8 1
27 9 1
27 10 1
27 11 1
27 12 1
27 13 1
27 14 1
27 15 2
27 16 2
27 17 2
27 18 1
27 19 2
27 20 2
27 21 1
27 22 2
27 23 1
27 24 1
27 25 2
27 26 1
28 0 1
28 1 1
28 2 2
28 3 2
28 4 2
28 5 1
28 6 2
28 7 1
28 8 2
28 9 2
28 10 1
28 11 2
28 12 1
28 13 2
28 14 1
28 15 2
28 16 2
28 17 1
28 18 2
28 19 1
28 20 1
28 21 1
28 22 2
28 23 1
28 24 1
28 25 1
28 26 1
28 27 2
29 0 1
29 1 1
29 2 2
29 3 2
29 4 1
29 5 2
29 6 2
29 7 2
29 8 2
29 9 1
29 10 1
29 11 1
29 12 1
29 13 1
29 14 2
29 15 2
29 16 1
29 17 2
29 18 2
29 19 1
29 20 2
29 21 2
29 22 2
29 23 2
29 24 2
29 25 2
29 26 2
29 27 2
29 28 2
